db/data/491309925884182672645517832932631910.z3.out
sat
-------------------
26.373019734
